NAME : sim71.85623.tour
COMMENT : Length = 85623
COMMENT : Found by LKH [Keld Helsgaun] Sat Sep 15 15:48:07 2018
TYPE : TOUR
DIMENSION : 71
TOUR_SECTION
1
43
65
42
18
40
50
36
39
17
8
68
60
2
51
33
9
10
23
11
16
45
61
62
49
19
4
20
14
64
52
32
57
34
46
41
21
27
26
66
7
31
13
48
25
5
22
69
29
15
54
37
38
67
55
30
24
71
3
44
58
35
47
53
56
28
70
6
59
12
63
-1
EOF
